webassembly/ejemplos_dzn/16/folder16_json_49.dzn
TERM = { '.', 's(5)', 'in_10', 'in_1', 'in_6', 'in_9', 'in_0', 's(4)', 'in_3', 's(1)', 's(7)', 's(2)', 's(9)', 'in_2', 's(8)', 's(6)', 'in_8', 's(0)', 's(3)', 'local_0', 'local_1', 'in_4', 'in_7', 'in_5', 's(10)'};
null = '.';
s = 16;
n = 16;
ndeps = 10;
max_registers_sz = 5;
NR = 2;
registers = [|'local_0', 's(8)', |'local_1', 's(9)'|];
dependencies = [|'i32.store8_1', 'i32.load8_s_2', |'i32.load8_s_2', 'call[function_index(0)]_3', |'call[function_index(0)]_3', 'i32.load8_u_4', |'i32.load8_u_4', 'call[function_index(1)]_6', |'call[function_index(1)]_6', 'i32.load_7', |'i32.load_7', 'i32.store16_8', |'i32.store16_8', 'i32.store8_9', |'i32.store8_9', 'i32.load8_s_10', |'i32.store8_9', 'i32.load16_s_13', |'i32.store8_9', 'i32.load16_u_15'|];
GET_ENUM = { GET1, GET2, GET3, GET4, GET5, GET6, GET7};
SET_ENUM = { SET1, SET2, SET3, SET4, SET5, SET6, SET7};
TEE_ENUM = { TEE1, TEE2, TEE3, TEE4, TEE5, TEE6, TEE7};
N = 12;
OP = { 'call[function_index(0)]_3', 'call[function_index(1)]_6', 'i32.store8_1', 'i32.load8_s_2', 'i32.load8_u_4', 'i32.load_7', 'i32.sub_0', 'i32.store16_8', 'i32.store8_9', 'i32.load8_s_10', 'i32.load16_s_13', 'i32.load16_u_15' };
in_ops = [3, 0, 2, 1, 1, 1, 2, 2, 2, 1, 1, 1 ];
out_ops = [3, 1, 0, 1, 1, 1, 1, 0, 0, 1, 1, 1 ];
in1 = ['s(0)', '.', 'in_1', 'in_3', 's(3)', 's(6)', 's(4)', 's(7)', 's(1)', 'in_7', 'in_9', 'in_10' ];
in2 = ['in_4', '.', 'in_2', '.', '.', '.', 's(2)', 's(5)', 'in_6', '.', '.', '.' ];
in3 = ['in_5', '.', '.', '.', '.', '.', '.', '.', '.', '.', '.', '.' ];
out1 = ['s(3)', 's(6)', '.', 's(0)', 's(4)', 's(7)', 's(5)', '.', '.', 's(8)', 's(9)', 's(10)' ];
out2 = ['s(2)', '.', '.', '.', '.', '.', '.', '.', '.', '.', '.', '.' ];
out3 = ['s(1)', '.', '.', '.', '.', '.', '.', '.', '.', '.', '.', '.' ];
comm = [false, false, false, false, false, false, false, false, false, false, false, false ];
gas = [1, 1, 1, 1, 1, 1, 1, 1, 1, 1, 1, 1 ];
sz = [1, 1, 1, 1, 1, 1, 1, 1, 1, 1, 1, 1 ];
stor = [true, true, true, false, false, false, false, true, true, false, false, false ];
lb = [ 1, 1, 1, 1, 1, 1, 1, 1, 1, 1, 1, 1 ];
ub = [ 16, 16, 16, 16, 16, 16, 16, 16, 16, 16, 16, 16 ];
startstack = [ 'in_0', 'in_1', 'in_2', 'in_3', 'in_4', 'in_5', 'in_6', 'in_7', 'in_8', 'in_9', 'in_10', null, null, null, null, null ];
endstack = [ 's(10)', null, null, null, null, null, null, null, null, null, null, null, null, null, null, null ];
